(declare-const |lo':50:63:67| Int)
(declare-const |hi':52:61:65| Int)
(declare-const |mid':51:62:66| Int)
(declare-const |K:59:60:64| Int)
(declare-const |havoc:0| Int)
(assert (and (< (- |havoc:0|) 0) (<= (+ |havoc:0| -1000000) 0)
               (or (not (and (<= (- |K:59:60:64|) 0) (<= |K:59:60:64| 0)))
                     (= (+ |hi':52:61:65| |K:59:60:64| (* -2 |havoc:0|)) 0))
               (or (not (<= (+ (- |K:59:60:64|) 1) 0))
                     (= (+ |hi':52:61:65| |K:59:60:64| (* -2 |havoc:0|)) 0))
               (or (not (and (<= (- |K:59:60:64|) 0) (<= |K:59:60:64| 0)))
                     (= (+ |mid':51:62:66| |K:59:60:64| (- |havoc:0|)) 0))
               (or (not (<= (+ (- |K:59:60:64|) 1) 0))
                     (= (+ |mid':51:62:66| |K:59:60:64| (- |havoc:0|)) 0))
               (or (not (and (<= (- |K:59:60:64|) 0) (<= |K:59:60:64| 0)))
                     (= (+ |lo':50:63:67| (- |K:59:60:64|)) 0))
               (or (not (<= (+ (- |K:59:60:64|) 1) 0))
                     (= (+ |lo':50:63:67| (- |K:59:60:64|)) 0))
               (or (and (= |K:59:60:64| 0)
                          (= (+ (- |hi':52:61:65|) (* 2 |havoc:0|)) 0)
                          (= (+ (- |mid':51:62:66|) |havoc:0|) 0)
                          (= (- |lo':50:63:67|) 0))
                     (and (<= (+ (- |K:59:60:64|) 1) 0)
                            (<= (+ (- |havoc:0|) 1) 0)
                            (= (+ |lo':50:63:67| (* 2 |mid':51:62:66|)
                                    (- |hi':52:61:65|)) 0)
                            (<= (+ (* 2 |mid':51:62:66|) (- |hi':52:61:65|) 1) 0)
                            (<= (- |mid':51:62:66|) 0)))
               (<= (- |K:59:60:64|) 0) (< (- |hi':52:61:65|) 0)
               (<= (- |lo':50:63:67|) 0) (<= (- |mid':51:62:66|) 0)
               (= (+ (- |lo':50:63:67|) (* -2 |mid':51:62:66|) |hi':52:61:65|) 0)
               (<= |mid':51:62:66| 0)
               (not (= (+ |lo':50:63:67| (- |hi':52:61:65|)) 0))))
(check-sat)
